%%%mzn-stat: initTime=0.004933787
%%%mzn-stat: objective=752
%%%mzn-stat: nodes=1091
%%%mzn-stat: restarts=0
%%%mzn-stat: peakDepth=158
%%%mzn-stat: solveTime=0.145969294
%%%mzn-stat: variables=446
%%%mzn-stat: propagators=280
%%%mzn-stat: failures=811
%%%mzn-stat: propagations=50710
%%%mzn-stat: nogoods=811
%%%mzn-stat: AverageConflictSize=5.197287299630086
%%%mzn-stat: NumUnitNogoodsLearned=606
%%%mzn-stat: AverageLearnedNogoodLength=3.186189889025894
%%%mzn-stat: AverageBacktrackAmount=0
%%%mzn-stat: AverageLbd=2.05672009864365
%%%mzn-stat-end
maxleg = 752;
succ = array1d(1..50,[50, 27, 40, 31, 22, 42, 29, 16, 28, 23, 43, 30, 21, 3, 24, 37, 9, 17, 20, 15, 41, 1, 6, 35, 5, 2, 10, 19, 45, 11, 12, 33, 7, 32, 39, 26, 25, 47, 38, 4, 18, 46, 13, 14, 44, 34, 48, 49, 8, 36]);
% time elapsed: 8.36 s
----------
==========
% time elapsed: 8.36 s
%%%mzn-stat: initTime=0.004933787
%%%mzn-stat: objective=752
%%%mzn-stat: nodes=1091
%%%mzn-stat: restarts=0
%%%mzn-stat: peakDepth=158
%%%mzn-stat: solveTime=0.145973328
%%%mzn-stat: variables=446
%%%mzn-stat: propagators=280
%%%mzn-stat: failures=811
%%%mzn-stat: propagations=50710
%%%mzn-stat: nogoods=811
%%%mzn-stat: AverageConflictSize=5.197287299630086
%%%mzn-stat: NumUnitNogoodsLearned=606
%%%mzn-stat: AverageLearnedNogoodLength=3.186189889025894
%%%mzn-stat: AverageBacktrackAmount=0
%%%mzn-stat: AverageLbd=2.05672009864365
%%%mzn-stat-end
